# Generated by ConicBenchmarkUtilities.jl
VER
2

OBJSENSE
MIN

VAR
361 1
F 361

INT
120
42
43
44
45
46
47
48
49
50
51
52
53
54
55
56
57
58
59
60
61
62
63
64
65
66
67
68
69
70
71
72
73
74
75
76
77
78
79
80
81
82
83
84
85
86
87
88
89
90
91
92
93
94
95
96
97
98
99
100
101
194
196
198
200
201
202
205
208
209
210
213
216
219
222
224
226
227
228
229
230
232
234
235
236
238
240
242
244
246
248
251
252
253
254
256
258
260
262
264
266
268
270
272
274
275
276
279
282
283
284
286
288
290
292
294
296
297
298
299
300

CON
1115 1035
L= 1
L= 1
L= 1
L= 1
L= 1
L= 1
L= 1
L= 1
L= 1
L= 1
L= 1
L= 1
L= 1
L= 1
L= 1
L= 1
L= 1
L= 1
L= 1
L= 1
L= 1
L= 1
L= 1
L= 1
L= 1
L= 1
L= 1
L= 1
L= 1
L= 1
L= 1
L= 1
L= 1
L= 1
L= 1
EXP 3
L+ 1
EXP 3
L+ 1
L+ 1
L+ 1
L+ 1
L+ 1
EXP 3
L+ 1
EXP 3
L+ 1
L+ 1
L+ 1
L+ 1
L+ 1
L+ 1
L+ 1
L+ 1
L+ 1
L+ 1
L+ 1
L+ 1
L+ 1
EXP 3
L+ 1
EXP 3
L+ 1
L+ 1
L+ 1
L+ 1
L+ 1
L+ 1
L+ 1
L+ 1
L+ 1
L+ 1
L+ 1
L+ 1
L+ 1
L+ 1
L+ 1
L+ 1
L+ 1
L+ 1
L+ 1
EXP 3
L+ 1
EXP 3
L+ 1
L+ 1
L+ 1
L+ 1
L+ 1
EXP 3
L+ 1
EXP 3
L+ 1
L+ 1
L+ 1
L+ 1
L+ 1
EXP 3
L+ 1
EXP 3
L+ 1
L+ 1
L+ 1
L+ 1
L+ 1
L+ 1
L+ 1
L+ 1
L+ 1
L+ 1
L+ 1
L+ 1
L+ 1
L+ 1
L+ 1
L+ 1
L+ 1
L+ 1
L+ 1
L+ 1
L+ 1
EXP 3
L+ 1
EXP 3
L+ 1
L+ 1
L+ 1
L+ 1
L+ 1
L+ 1
L+ 1
L+ 1
L+ 1
L+ 1
L+ 1
L+ 1
L+ 1
L+ 1
L+ 1
L+ 1
L+ 1
L+ 1
L+ 1
EXP 3
L+ 1
EXP 3
L+ 1
L+ 1
L+ 1
L+ 1
L+ 1
EXP 3
L+ 1
EXP 3
L+ 1
L+ 1
L+ 1
L+ 1
L+ 1
EXP 3
L+ 1
EXP 3
L+ 1
EXP 3
L+ 1
EXP 3
L+ 1
L+ 1
L+ 1
L+ 1
L+ 1
L+ 1
L+ 1
L+ 1
L+ 1
L+ 1
L+ 1
L+ 1
L+ 1
L+ 1
L+ 1
L+ 1
L+ 1
L+ 1
L+ 1
L+ 1
L+ 1
L+ 1
L+ 1
EXP 3
L+ 1
EXP 3
L+ 1
L+ 1
L+ 1
L+ 1
L+ 1
EXP 3
L+ 1
EXP 3
L+ 1
L+ 1
L+ 1
L+ 1
L+ 1
EXP 3
L+ 1
EXP 3
L+ 1
L+ 1
L+ 1
L+ 1
L+ 1
EXP 3
L+ 1
EXP 3
L+ 1
L+ 1
L+ 1
L+ 1
L+ 1
EXP 3
L+ 1
EXP 3
L+ 1
L+ 1
L+ 1
L+ 1
L+ 1
L+ 1
L+ 1
L+ 1
L+ 1
L+ 1
L+ 1
L+ 1
L+ 1
EXP 3
L+ 1
EXP 3
L+ 1
L+ 1
L+ 1
L+ 1
L+ 1
L+ 1
L+ 1
L+ 1
L+ 1
L+ 1
L+ 1
L+ 1
L+ 1
L+ 1
L+ 1
L+ 1
L+ 1
L+ 1
L+ 1
EXP 3
L+ 1
EXP 3
L+ 1
L+ 1
L+ 1
L+ 1
L+ 1
EXP 3
L+ 1
EXP 3
L+ 1
L+ 1
L+ 1
L+ 1
L+ 1
EXP 3
L+ 1
EXP 3
L+ 1
L+ 1
L+ 1
L+ 1
L+ 1
L+ 1
L+ 1
L+ 1
L+ 1
L+ 1
L+ 1
L+ 1
L+ 1
L+ 1
L+ 1
L+ 1
L+ 1
L+ 1
L+ 1
L+ 1
L+ 1
L+ 1
L+ 1
L+ 1
L+ 1
L+ 1
L+ 1
L+ 1
L+ 1
L+ 1
L+ 1
L+ 1
L+ 1
L+ 1
L+ 1
L+ 1
L+ 1
L+ 1
L+ 1
L+ 1
L+ 1
L+ 1
L+ 1
L+ 1
L+ 1
L+ 1
L+ 1
L+ 1
L+ 1
L+ 1
L+ 1
L+ 1
L+ 1
L+ 1
L+ 1
L+ 1
L+ 1
L+ 1
L+ 1
L+ 1
L+ 1
L+ 1
L+ 1
L+ 1
L+ 1
L+ 1
L+ 1
L+ 1
L+ 1
L+ 1
L+ 1
L+ 1
L+ 1
L+ 1
L+ 1
L+ 1
L+ 1
L+ 1
L+ 1
L+ 1
L+ 1
L+ 1
L+ 1
L+ 1
L+ 1
L+ 1
L+ 1
L+ 1
L+ 1
L+ 1
L+ 1
L+ 1
L+ 1
L+ 1
L+ 1
L+ 1
L+ 1
L+ 1
L+ 1
L+ 1
L+ 1
L+ 1
L+ 1
L+ 1
L+ 1
L+ 1
L+ 1
L+ 1
L+ 1
L+ 1
L+ 1
L+ 1
L+ 1
L+ 1
L+ 1
L+ 1
L+ 1
L+ 1
L+ 1
L+ 1
L+ 1
L+ 1
L+ 1
L+ 1
L+ 1
L+ 1
L+ 1
L+ 1
L+ 1
L+ 1
L+ 1
L+ 1
L+ 1
L+ 1
L+ 1
L+ 1
L+ 1
L+ 1
L+ 1
L+ 1
L+ 1
L+ 1
L+ 1
L+ 1
L+ 1
L+ 1
L+ 1
L+ 1
L+ 1
L+ 1
L+ 1
L+ 1
L+ 1
L+ 1
L+ 1
L+ 1
L+ 1
L+ 1
L+ 1
L+ 1
L+ 1
L+ 1
L+ 1
L+ 1
L+ 1
L+ 1
L+ 1
L+ 1
L+ 1
L+ 1
L+ 1
L+ 1
L+ 1
L+ 1
L+ 1
L+ 1
L+ 1
L+ 1
L+ 1
L+ 1
L+ 1
L+ 1
L+ 1
L+ 1
L+ 1
L+ 1
L+ 1
L+ 1
L+ 1
L+ 1
L+ 1
L+ 1
L+ 1
L+ 1
L+ 1
L+ 1
L+ 1
L+ 1
L+ 1
L+ 1
L+ 1
L+ 1
L+ 1
L+ 1
L+ 1
L+ 1
L+ 1
L+ 1
L+ 1
L+ 1
L+ 1
L+ 1
L+ 1
L+ 1
L+ 1
L+ 1
L+ 1
L+ 1
L+ 1
L+ 1
L+ 1
L+ 1
L+ 1
L+ 1
L+ 1
L+ 1
L+ 1
L+ 1
L+ 1
L+ 1
L+ 1
L+ 1
L+ 1
L+ 1
L+ 1
L+ 1
L+ 1
L+ 1
L+ 1
L+ 1
L+ 1
L+ 1
L+ 1
L+ 1
L+ 1
L+ 1
L+ 1
L+ 1
L+ 1
L+ 1
L+ 1
L+ 1
L+ 1
L+ 1
L+ 1
L+ 1
L+ 1
L+ 1
L+ 1
L+ 1
L+ 1
L+ 1
L+ 1
L+ 1
L+ 1
L+ 1
L+ 1
L+ 1
L+ 1
L+ 1
L+ 1
L+ 1
L+ 1
L+ 1
L+ 1
L+ 1
L+ 1
L+ 1
L+ 1
L+ 1
L+ 1
L+ 1
L+ 1
L+ 1
L+ 1
L+ 1
L+ 1
L+ 1
L+ 1
L+ 1
L+ 1
L= 1
L= 1
L+ 1
L+ 1
L+ 1
L+ 1
L+ 1
L+ 1
L+ 1
L+ 1
L+ 1
L+ 1
L+ 1
L+ 1
L+ 1
L+ 1
L+ 1
L+ 1
L+ 1
L+ 1
L+ 1
L+ 1
L+ 1
L+ 1
L+ 1
L+ 1
L+ 1
L+ 1
L+ 1
L+ 1
L+ 1
L+ 1
L+ 1
L+ 1
L+ 1
L+ 1
L+ 1
L+ 1
L+ 1
L+ 1
L+ 1
L+ 1
L+ 1
L+ 1
L+ 1
L+ 1
L+ 1
L+ 1
L+ 1
L+ 1
L+ 1
L+ 1
L+ 1
L+ 1
L+ 1
L+ 1
L+ 1
L+ 1
L+ 1
L+ 1
L+ 1
L+ 1
L+ 1
L+ 1
L+ 1
L+ 1
L+ 1
L+ 1
L+ 1
L+ 1
L+ 1
L+ 1
L+ 1
L+ 1
L+ 1
L+ 1
L+ 1
L+ 1
L+ 1
L+ 1
L+ 1
L+ 1
L+ 1
L+ 1
L+ 1
L+ 1
L+ 1
L+ 1
L+ 1
L+ 1
L+ 1
L+ 1
L+ 1
L+ 1
L+ 1
L+ 1
L+ 1
L+ 1
L+ 1
L+ 1
L+ 1
L+ 1
L+ 1
L+ 1
L+ 1
L+ 1
L+ 1
L+ 1
L+ 1
L+ 1
L+ 1
L+ 1
L+ 1
L+ 1
L+ 1
L+ 1
L+ 1
L+ 1
L+ 1
L+ 1
L+ 1
L+ 1
L+ 1
L+ 1
L+ 1
L+ 1
L+ 1
L+ 1
L+ 1
L+ 1
L+ 1
L+ 1
L+ 1
L+ 1
L+ 1
L+ 1
L+ 1
L+ 1
L+ 1
L+ 1
L+ 1
L+ 1
L+ 1
L+ 1
L+ 1
L+ 1
L+ 1
L+ 1
L+ 1
L+ 1
L+ 1
L+ 1
L+ 1
L+ 1
L+ 1
L+ 1
L+ 1
L+ 1
L+ 1
L+ 1
L+ 1
L+ 1
L+ 1
L+ 1
L+ 1
L+ 1
L+ 1
L+ 1
L+ 1
L+ 1
L+ 1
L+ 1
L+ 1
L+ 1
L+ 1
L+ 1
L+ 1
L+ 1
L+ 1
L+ 1
L+ 1
L+ 1
L+ 1
L+ 1
L+ 1
L+ 1
L+ 1
L+ 1
L+ 1
L+ 1
L+ 1
L+ 1
L+ 1
L+ 1
L+ 1
L+ 1
L+ 1
L+ 1
L+ 1
L+ 1
L+ 1
L+ 1
L+ 1
L+ 1
L+ 1
L+ 1
L+ 1
L+ 1
L+ 1
L+ 1
L+ 1
L+ 1
L+ 1
L+ 1
L+ 1
L+ 1
L+ 1
L+ 1
L+ 1
L+ 1
L+ 1
L+ 1
L+ 1
L+ 1
L+ 1
L+ 1
L+ 1
L+ 1
L+ 1
L+ 1
L+ 1
L+ 1
L+ 1
L+ 1
L+ 1
L+ 1
L+ 1
L+ 1
L+ 1
L+ 1
L+ 1
L+ 1
L+ 1
L+ 1
L+ 1
L+ 1
L+ 1
L+ 1
L+ 1
L+ 1
L+ 1
L+ 1
L+ 1
L+ 1
L+ 1
L+ 1
L+ 1
L+ 1
L+ 1
L+ 1
L+ 1
L+ 1
L+ 1
L+ 1
L+ 1
L+ 1
L+ 1
L+ 1
L+ 1
L+ 1
L+ 1
L+ 1
L+ 1
L+ 1
L+ 1
L+ 1
L+ 1
L+ 1
L+ 1
L+ 1
L+ 1
L+ 1
L+ 1
L+ 1
L+ 1
L+ 1
L+ 1
L+ 1
L+ 1
L+ 1
L+ 1
L+ 1
L+ 1
L+ 1
L+ 1
L+ 1
L+ 1
L+ 1
L+ 1
L+ 1
L+ 1
L+ 1
L+ 1
L+ 1
L+ 1
L+ 1
L+ 1
L+ 1
L+ 1
L+ 1
L+ 1
L+ 1
L+ 1
L+ 1
L+ 1
L+ 1
L+ 1
L+ 1
L+ 1
L+ 1
L+ 1
L+ 1
L+ 1
L+ 1
L+ 1
L+ 1
L+ 1
L+ 1
L+ 1
L+ 1
L+ 1
L+ 1
L+ 1
L+ 1
L+ 1
L+ 1
L+ 1
L+ 1
L+ 1
L+ 1
L+ 1
L+ 1
L+ 1
L+ 1
L+ 1
L+ 1
L+ 1
L+ 1
L+ 1
L+ 1
L+ 1
L+ 1
L+ 1
L+ 1
L+ 1
L+ 1
L+ 1
L+ 1
L+ 1
L+ 1
L+ 1
L+ 1
L+ 1
L+ 1
L+ 1
L+ 1
L+ 1
L+ 1
L+ 1
L+ 1
L+ 1
L+ 1
L+ 1
L+ 1
L+ 1
L+ 1
L+ 1
L+ 1
L+ 1
L+ 1
L+ 1
L+ 1
L+ 1
L+ 1
L+ 1
L+ 1
L+ 1
L+ 1
L+ 1
L+ 1
L+ 1
L+ 1
L+ 1
L+ 1
L+ 1
L+ 1
L+ 1
L+ 1
L+ 1
L+ 1
L+ 1
L+ 1
L+ 1
L+ 1
L+ 1
L+ 1
L+ 1
L+ 1
L+ 1
L+ 1
L+ 1
L+ 1
L+ 1
L+ 1
L+ 1
L+ 1
L+ 1
L+ 1
L+ 1
L+ 1
L+ 1
L+ 1
L+ 1
L+ 1
L+ 1
L+ 1
L+ 1
L+ 1
L+ 1
L+ 1
L+ 1
L+ 1
L+ 1
L+ 1
L+ 1
L+ 1
L+ 1
L+ 1
L+ 1
L+ 1
L+ 1
L+ 1
L+ 1
L+ 1
L+ 1
L+ 1
L+ 1
L+ 1
L+ 1
L+ 1
L+ 1
L+ 1
L+ 1
L+ 1
L+ 1
L+ 1
L+ 1
L+ 1
L+ 1
L+ 1
L+ 1
L+ 1
L+ 1
L+ 1
L+ 1
L+ 1

OBJACOORD
1
102 -1.0

ACOORD
1973
0 0 -1.0
1 0 1.0
725 0 1.0
726 0 -1.0
0 1 -1.0
2 1 1.0
727 1 1.0
728 1 -1.0
0 2 5.0
5 2 -1.0
739 2 1.0
0 3 10.0
6 3 -1.0
740 3 1.0
0 4 -2.0
83 4 0.5
85 4 -0.5
89 4 -1.0
749 4 1.0
750 4 -1.0
0 5 -1.0
84 5 0.5
86 5 -0.5
90 5 -1.0
751 5 1.0
752 5 -1.0
0 6 -10.0
161 6 1.0
163 6 -1.0
167 6 -1.0
785 6 1.0
786 6 -1.0
0 7 -5.0
162 7 1.0
164 7 -1.0
168 7 -1.0
787 7 1.0
788 7 -1.0
0 8 -5.0
15 8 -1.0
789 8 1.0
790 8 -1.0
0 9 -5.0
16 9 -1.0
791 9 1.0
792 9 -1.0
0 10 40.0
157 10 -1.0
159 10 1.0
161 10 -1.0
163 10 1.0
169 10 -1.0
805 10 1.0
0 11 30.0
158 11 -1.0
160 11 1.0
162 11 -1.0
164 11 1.0
170 11 -1.0
806 11 1.0
0 12 15.0
174 12 -1.0
181 12 -1.0
807 12 1.0
0 13 20.0
178 13 -1.0
182 13 -1.0
808 13 1.0
0 14 10.0
186 14 -1.0
193 14 -1.0
809 14 1.0
0 15 30.0
190 15 -1.0
194 15 -1.0
810 15 1.0
0 16 30.0
198 16 -1.0
206 16 -1.0
215 16 -1.0
811 16 1.0
0 17 20.0
202 17 -1.0
210 17 -1.0
216 17 -1.0
812 17 1.0
0 18 35.0
217 18 -1.0
219 18 1.0
223 18 -1.0
813 18 1.0
0 19 50.0
218 19 -1.0
220 19 1.0
224 19 -1.0
814 19 1.0
0 20 20.0
225 20 -1.0
227 20 1.0
231 20 -1.0
815 20 1.0
0 21 30.0
226 21 -1.0
228 21 1.0
232 21 -1.0
816 21 1.0
0 22 25.0
236 22 -1.0
243 22 -1.0
817 22 1.0
0 23 50.0
240 23 -1.0
244 23 -1.0
818 23 1.0
0 24 15.0
248 24 -1.0
255 24 -1.0
819 24 1.0
0 25 20.0
252 25 -1.0
256 25 -1.0
820 25 1.0
0 26 30.0
27 26 -1.0
835 26 1.0
0 27 40.0
28 27 -1.0
836 27 1.0
0 28 -1.0
317 28 0.5
319 28 -0.5
323 28 -1.0
845 28 1.0
846 28 -1.0
0 29 -1.0
318 29 0.5
320 29 -0.5
324 29 -1.0
847 29 1.0
848 29 -1.0
0 30 80.0
33 30 -1.0
863 30 1.0
0 31 90.0
34 31 -1.0
864 31 1.0
0 32 285.0
330 32 -1.0
337 32 -1.0
865 32 1.0
0 33 390.0
334 33 -1.0
338 33 -1.0
866 33 1.0
0 34 290.0
342 34 -1.0
349 34 -1.0
867 34 1.0
0 35 405.0
346 35 -1.0
350 35 -1.0
868 35 1.0
0 36 280.0
354 36 -1.0
361 36 -1.0
869 36 1.0
0 37 400.0
358 37 -1.0
362 37 -1.0
870 37 1.0
0 38 290.0
363 38 -1.0
365 38 1.0
369 38 -1.0
871 38 1.0
0 39 300.0
364 39 -1.0
366 39 1.0
370 39 -1.0
872 39 1.0
0 40 350.0
371 40 -1.0
373 40 1.0
377 40 -1.0
873 40 1.0
0 41 250.0
372 41 -1.0
374 41 1.0
378 41 -1.0
874 41 1.0
0 42 -5.0
379 42 -5.0
439 42 5.0
529 42 -1.0
530 42 -1.0
589 42 1.0
995 42 1.0
996 42 -1.0
0 43 -4.0
380 43 -4.0
440 43 4.0
529 43 -1.0
530 43 -1.0
590 43 1.0
997 43 1.0
998 43 -1.0
0 44 -8.0
381 44 -8.0
441 44 8.0
531 44 -1.0
532 44 -1.0
591 44 1.0
999 44 1.0
1000 44 -1.0
0 45 -7.0
382 45 -7.0
442 45 7.0
531 45 -1.0
532 45 -1.0
592 45 1.0
1001 45 1.0
1002 45 -1.0
0 46 -6.0
383 46 -6.0
443 46 6.0
533 46 -1.0
534 46 -1.0
593 46 1.0
1003 46 1.0
1004 46 -1.0
0 47 -9.0
384 47 -9.0
444 47 9.0
533 47 -1.0
534 47 -1.0
594 47 1.0
1005 47 1.0
1006 47 -1.0
0 48 -10.0
385 48 -10.0
445 48 10.0
535 48 -1.0
536 48 -1.0
595 48 1.0
1007 48 1.0
1008 48 -1.0
0 49 -9.0
386 49 -9.0
446 49 9.0
535 49 -1.0
536 49 -1.0
596 49 1.0
1009 49 1.0
1010 49 -1.0
0 50 -6.0
387 50 -6.0
447 50 6.0
537 50 -1.0
538 50 -1.0
597 50 1.0
1011 50 1.0
1012 50 -1.0
0 51 -10.0
388 51 -10.0
448 51 10.0
537 51 -1.0
538 51 -1.0
598 51 1.0
1013 51 1.0
1014 51 -1.0
0 52 -7.0
389 52 -7.0
449 52 7.0
539 52 -1.0
540 52 -1.0
599 52 1.0
1015 52 1.0
1016 52 -1.0
0 53 -7.0
390 53 -7.0
450 53 7.0
539 53 -1.0
540 53 -1.0
600 53 1.0
1017 53 1.0
1018 53 -1.0
0 54 -4.0
391 54 -4.0
451 54 4.0
541 54 -1.0
542 54 -1.0
601 54 1.0
1019 54 1.0
1020 54 -1.0
0 55 -3.0
392 55 -3.0
452 55 3.0
541 55 -1.0
542 55 -1.0
602 55 1.0
1021 55 1.0
1022 55 -1.0
0 56 -5.0
393 56 -5.0
453 56 5.0
543 56 -1.0
544 56 -1.0
603 56 1.0
1023 56 1.0
1024 56 -1.0
0 57 -6.0
394 57 -6.0
454 57 6.0
543 57 -1.0
544 57 -1.0
604 57 1.0
1025 57 1.0
1026 57 -1.0
0 58 -2.0
395 58 -2.0
455 58 2.0
545 58 -1.0
546 58 -1.0
605 58 1.0
1027 58 1.0
1028 58 -1.0
0 59 -5.0
396 59 -5.0
456 59 5.0
545 59 -1.0
546 59 -1.0
606 59 1.0
1029 59 1.0
1030 59 -1.0
0 60 -4.0
397 60 -4.0
457 60 4.0
547 60 -1.0
548 60 -1.0
607 60 1.0
1031 60 1.0
1032 60 -1.0
0 61 -7.0
398 61 -7.0
458 61 7.0
547 61 -1.0
548 61 -1.0
608 61 1.0
1033 61 1.0
1034 61 -1.0
0 62 -3.0
399 62 -3.0
459 62 3.0
549 62 -1.0
550 62 -1.0
609 62 1.0
1035 62 1.0
1036 62 -1.0
0 63 -9.0
400 63 -9.0
460 63 9.0
549 63 -1.0
550 63 -1.0
610 63 1.0
1037 63 1.0
1038 63 -1.0
0 64 -7.0
401 64 -7.0
461 64 7.0
551 64 -1.0
552 64 -1.0
611 64 1.0
1039 64 1.0
1040 64 -1.0
0 65 -2.0
402 65 -2.0
462 65 2.0
551 65 -1.0
552 65 -1.0
612 65 1.0
1041 65 1.0
1042 65 -1.0
0 66 -3.0
403 66 -3.0
463 66 3.0
553 66 -1.0
554 66 -1.0
613 66 1.0
1043 66 1.0
1044 66 -1.0
0 67 -1.0
404 67 -1.0
464 67 1.0
553 67 -1.0
554 67 -1.0
614 67 1.0
1045 67 1.0
1046 67 -1.0
0 68 -2.0
405 68 -2.0
465 68 2.0
555 68 -1.0
556 68 -1.0
615 68 1.0
1047 68 1.0
1048 68 -1.0
0 69 -6.0
406 69 -6.0
466 69 6.0
555 69 -1.0
556 69 -1.0
616 69 1.0
1049 69 1.0
1050 69 -1.0
0 70 -4.0
407 70 -4.0
467 70 4.0
557 70 -1.0
558 70 -1.0
617 70 1.0
1051 70 1.0
1052 70 -1.0
0 71 -8.0
408 71 -8.0
468 71 8.0
557 71 -1.0
558 71 -1.0
618 71 1.0
1053 71 1.0
1054 71 -1.0
0 72 -2.0
409 72 -2.0
469 72 2.0
559 72 -1.0
560 72 -1.0
619 72 1.0
1055 72 1.0
1056 72 -1.0
0 73 -5.0
410 73 -5.0
470 73 5.0
559 73 -1.0
560 73 -1.0
620 73 1.0
1057 73 1.0
1058 73 -1.0
0 74 -3.0
411 74 -3.0
471 74 3.0
561 74 -1.0
562 74 -1.0
621 74 1.0
1059 74 1.0
1060 74 -1.0
0 75 -4.0
412 75 -4.0
472 75 4.0
561 75 -1.0
562 75 -1.0
622 75 1.0
1061 75 1.0
1062 75 -1.0
0 76 -5.0
413 76 -5.0
473 76 5.0
563 76 -1.0
564 76 -1.0
623 76 1.0
1063 76 1.0
1064 76 -1.0
0 77 -7.0
414 77 -7.0
474 77 7.0
563 77 -1.0
564 77 -1.0
624 77 1.0
1065 77 1.0
1066 77 -1.0
0 78 -2.0
415 78 -2.0
475 78 2.0
565 78 -1.0
566 78 -1.0
625 78 1.0
1067 78 1.0
1068 78 -1.0
0 79 -8.0
416 79 -8.0
476 79 8.0
565 79 -1.0
566 79 -1.0
626 79 1.0
1069 79 1.0
1070 79 -1.0
0 80 -1.0
417 80 -1.0
477 80 1.0
567 80 -1.0
568 80 -1.0
627 80 1.0
1071 80 1.0
1072 80 -1.0
0 81 -4.0
418 81 -4.0
478 81 4.0
567 81 -1.0
568 81 -1.0
628 81 1.0
1073 81 1.0
1074 81 -1.0
0 82 -2.0
419 82 -2.0
479 82 2.0
569 82 -1.0
570 82 -1.0
629 82 1.0
1075 82 1.0
1076 82 -1.0
0 83 -5.0
420 83 -5.0
480 83 5.0
569 83 -1.0
570 83 -1.0
630 83 1.0
1077 83 1.0
1078 83 -1.0
0 84 -9.0
421 84 -9.0
481 84 9.0
571 84 -1.0
572 84 -1.0
631 84 1.0
1079 84 1.0
1080 84 -1.0
0 85 -2.0
422 85 -2.0
482 85 2.0
571 85 -1.0
572 85 -1.0
632 85 1.0
1081 85 1.0
1082 85 -1.0
0 86 -5.0
423 86 -5.0
483 86 5.0
573 86 -1.0
574 86 -1.0
633 86 1.0
1083 86 1.0
1084 86 -1.0
0 87 -8.0
424 87 -8.0
484 87 8.0
573 87 -1.0
574 87 -1.0
634 87 1.0
1085 87 1.0
1086 87 -1.0
0 88 -2.0
425 88 -2.0
485 88 2.0
575 88 -1.0
576 88 -1.0
635 88 1.0
1087 88 1.0
1088 88 -1.0
0 89 -3.0
426 89 -3.0
486 89 3.0
575 89 -1.0
576 89 -1.0
636 89 1.0
1089 89 1.0
1090 89 -1.0
0 90 -10.0
427 90 -10.0
487 90 10.0
577 90 -1.0
578 90 -1.0
637 90 1.0
1091 90 1.0
1092 90 -1.0
0 91 -6.0
428 91 -6.0
488 91 6.0
577 91 -1.0
578 91 -1.0
638 91 1.0
1093 91 1.0
1094 91 -1.0
0 92 -4.0
429 92 -4.0
489 92 4.0
579 92 -1.0
580 92 -1.0
639 92 1.0
1095 92 1.0
1096 92 -1.0
0 93 -8.0
430 93 -8.0
490 93 8.0
579 93 -1.0
580 93 -1.0
640 93 1.0
1097 93 1.0
1098 93 -1.0
0 94 -7.0
431 94 -7.0
491 94 7.0
581 94 -1.0
582 94 -1.0
641 94 1.0
1099 94 1.0
1100 94 -1.0
0 95 -3.0
432 95 -3.0
492 95 3.0
581 95 -1.0
582 95 -1.0
642 95 1.0
1101 95 1.0
1102 95 -1.0
0 96 -4.0
433 96 -4.0
493 96 4.0
583 96 -1.0
584 96 -1.0
643 96 1.0
1103 96 1.0
1104 96 -1.0
0 97 -8.0
434 97 -8.0
494 97 8.0
583 97 -1.0
584 97 -1.0
644 97 1.0
1105 97 1.0
1106 97 -1.0
0 98 -2.0
435 98 -2.0
495 98 2.0
585 98 -1.0
586 98 -1.0
645 98 1.0
1107 98 1.0
1108 98 -1.0
0 99 -1.0
436 99 -1.0
496 99 1.0
585 99 -1.0
586 99 -1.0
646 99 1.0
1109 99 1.0
1110 99 -1.0
0 100 -8.0
437 100 -8.0
497 100 8.0
587 100 -1.0
588 100 -1.0
647 100 1.0
1111 100 1.0
1112 100 -1.0
0 101 -3.0
438 101 -3.0
498 101 3.0
587 101 -1.0
588 101 -1.0
648 101 1.0
1113 101 1.0
1114 101 -1.0
0 102 -1.0
1 103 -1.0
35 103 1.0
43 103 -1.0
729 103 1.0
1 104 -1.0
47 104 1.0
55 104 -1.0
731 104 1.0
2 105 -1.0
39 105 1.0
44 105 -1.0
730 105 1.0
2 106 -1.0
51 106 1.0
56 106 -1.0
732 106 1.0
3 107 -1.0
38 107 -1.0
45 107 -1.0
733 107 1.0
3 108 -1.0
50 108 -1.0
57 108 -1.0
735 108 1.0
3 109 1.0
5 109 1.0
737 109 1.0
4 110 -1.0
42 110 -1.0
46 110 -1.0
734 110 1.0
4 111 -1.0
54 111 -1.0
58 111 -1.0
736 111 1.0
4 112 1.0
6 112 1.0
738 112 1.0
5 113 -1.0
7 113 1.0
741 113 1.0
6 114 -1.0
8 114 1.0
742 114 1.0
7 115 -1.0
59 115 0.75
61 115 -0.75
63 115 -1.0
743 115 1.0
7 116 -1.0
67 116 1.0
75 116 -1.0
745 116 1.0
7 117 -1.0
79 117 1.0
81 117 -1.0
87 117 -1.0
747 117 1.0
8 118 -1.0
60 118 0.75
62 118 -0.75
64 118 -1.0
744 118 1.0
8 119 -1.0
71 119 1.0
76 119 -1.0
746 119 1.0
8 120 -1.0
80 120 1.0
82 120 -1.0
88 120 -1.0
748 120 1.0
9 121 1.0
59 121 -1.0
61 121 1.0
65 121 -1.0
753 121 1.0
9 122 -1.0
93 122 1.0
101 122 -1.0
759 122 1.0
9 123 -1.0
105 123 1.0
113 123 -1.0
761 123 1.0
10 124 1.0
60 124 -1.0
62 124 1.0
66 124 -1.0
754 124 1.0
10 125 -1.0
97 125 1.0
102 125 -1.0
760 125 1.0
10 126 -1.0
109 126 1.0
114 126 -1.0
762 126 1.0
11 127 1.0
79 127 -1.0
81 127 1.0
83 127 -1.0
85 127 1.0
91 127 -1.0
757 127 1.0
11 128 -1.0
129 128 0.9
131 128 -0.9
133 128 -1.0
763 128 1.0
11 129 -1.0
137 129 0.6
139 129 -0.6
141 129 -1.0
765 129 1.0
11 130 -1.0
145 130 1.0
153 130 -1.0
767 130 1.0
12 131 1.0
80 131 -1.0
82 131 1.0
84 131 -1.0
86 131 1.0
92 131 -1.0
758 131 1.0
12 132 -1.0
130 132 0.9
132 132 -0.9
134 132 -1.0
764 132 1.0
12 133 -1.0
138 133 0.6
140 133 -0.6
142 133 -1.0
766 133 1.0
12 134 -1.0
149 134 1.0
154 134 -1.0
768 134 1.0
13 135 1.0
120 135 -1.0
127 135 -1.0
773 135 1.0
13 136 -1.0
183 136 1.0
191 136 -1.0
781 136 1.0
13 137 -1.0
195 137 1.0
211 137 -1.0
783 137 1.0
14 138 1.0
124 138 -1.0
128 138 -1.0
774 138 1.0
14 139 -1.0
187 139 1.0
192 139 -1.0
782 139 1.0
14 140 -1.0
199 140 1.0
212 140 -1.0
784 140 1.0
15 141 -1.0
129 141 -1.0
131 141 1.0
135 141 -1.0
775 141 1.0
15 142 1.0
203 142 1.0
213 142 -1.0
793 142 1.0
16 143 -1.0
130 143 -1.0
132 143 1.0
136 143 -1.0
776 143 1.0
16 144 1.0
207 144 1.0
214 144 -1.0
794 144 1.0
17 145 1.0
137 145 -1.0
139 145 1.0
143 145 -1.0
777 145 1.0
17 146 -1.0
217 146 1.0
219 146 -1.0
221 146 -1.0
795 146 1.0
17 147 -1.0
225 147 1.0
227 147 -1.0
229 147 -1.0
797 147 1.0
18 148 1.0
138 148 -1.0
140 148 1.0
144 148 -1.0
778 148 1.0
18 149 -1.0
218 149 1.0
220 149 -1.0
222 149 -1.0
796 149 1.0
18 150 -1.0
226 150 1.0
228 150 -1.0
230 150 -1.0
798 150 1.0
19 151 1.0
148 151 -1.0
155 151 -1.0
779 151 1.0
19 152 -1.0
233 152 1.0
241 152 -1.0
799 152 1.0
19 153 -1.0
245 153 1.0
253 153 -1.0
801 153 1.0
19 154 -1.0
257 154 1.0
265 154 -1.0
803 154 1.0
20 155 1.0
152 155 -1.0
156 155 -1.0
780 155 1.0
20 156 -1.0
237 156 1.0
242 156 -1.0
800 156 1.0
20 157 -1.0
249 157 1.0
254 157 -1.0
802 157 1.0
20 158 -1.0
261 158 1.0
266 158 -1.0
804 158 1.0
21 159 1.0
260 159 -1.0
267 159 -1.0
821 159 1.0
21 160 -1.0
23 160 1.0
823 160 1.0
22 161 1.0
264 161 -1.0
268 161 -1.0
822 161 1.0
22 162 -1.0
24 162 1.0
824 162 1.0
23 163 -1.0
269 163 1.0
277 163 -1.0
825 163 1.0
23 164 -1.0
281 164 1.0
289 164 -1.0
827 164 1.0
24 165 -1.0
273 165 1.0
278 165 -1.0
826 165 1.0
24 166 -1.0
285 166 1.0
290 166 -1.0
828 166 1.0
25 167 -1.0
272 167 -1.0
279 167 -1.0
829 167 1.0
25 168 -1.0
284 168 -1.0
291 168 -1.0
831 168 1.0
25 169 1.0
27 169 1.0
833 169 1.0
26 170 -1.0
276 170 -1.0
280 170 -1.0
830 170 1.0
26 171 -1.0
288 171 -1.0
292 171 -1.0
832 171 1.0
26 172 1.0
28 172 1.0
834 172 1.0
27 173 -1.0
29 173 1.0
837 173 1.0
28 174 -1.0
30 174 1.0
838 174 1.0
29 175 -1.0
293 175 0.75
295 175 -0.75
297 175 -1.0
839 175 1.0
29 176 -1.0
301 176 1.0
309 176 -1.0
841 176 1.0
29 177 -1.0
313 177 1.0
315 177 -1.0
321 177 -1.0
843 177 1.0
30 178 -1.0
294 178 0.75
296 178 -0.75
298 178 -1.0
840 178 1.0
30 179 -1.0
305 179 1.0
310 179 -1.0
842 179 1.0
30 180 -1.0
314 180 1.0
316 180 -1.0
322 180 -1.0
844 180 1.0
31 181 1.0
293 181 -1.0
295 181 1.0
299 181 -1.0
849 181 1.0
31 182 -1.0
327 182 1.0
335 182 -1.0
855 182 1.0
31 183 -1.0
339 183 1.0
347 183 -1.0
857 183 1.0
32 184 1.0
294 184 -1.0
296 184 1.0
300 184 -1.0
850 184 1.0
32 185 -1.0
331 185 1.0
336 185 -1.0
856 185 1.0
32 186 -1.0
343 186 1.0
348 186 -1.0
858 186 1.0
33 187 1.0
313 187 -1.0
315 187 1.0
317 187 -1.0
319 187 1.0
325 187 -1.0
853 187 1.0
33 188 -1.0
363 188 0.9
365 188 -0.9
367 188 -1.0
859 188 1.0
33 189 -1.0
371 189 0.6
373 189 -0.6
375 189 -1.0
861 189 1.0
34 190 1.0
314 190 -1.0
316 190 1.0
318 190 -1.0
320 190 1.0
326 190 -1.0
854 190 1.0
34 191 -1.0
364 191 0.9
366 191 -0.9
368 191 -1.0
860 191 1.0
34 192 -1.0
372 192 0.6
374 192 -0.6
376 192 -1.0
862 192 1.0
37 193 1.0
38 193 1.0
38 194 -1.0
43 194 40.0
45 194 3.71357206670431
499 194 -1.0
589 194 -1.0
590 194 1.0
649 194 1.0
669 194 1.0
671 194 1.0
673 194 1.0
875 194 1.0
876 194 -1.0
41 195 1.0
42 195 1.0
42 196 -1.0
44 196 40.0
46 196 3.71357206670431
499 196 1.0
590 196 -1.0
650 196 1.0
670 196 1.0
672 196 1.0
674 196 1.0
877 196 1.0
878 196 -1.0
49 197 1.0
50 197 1.2
50 198 -1.0
55 198 40.0
57 198 4.45628648004517
500 198 -1.0
591 198 -1.0
592 198 1.0
649 198 1.0
669 198 1.0
671 198 1.0
673 198 1.0
879 198 1.0
880 198 -1.0
53 199 1.0
54 199 1.2
54 200 -1.0
56 200 40.0
58 200 4.45628648004517
500 200 1.0
592 200 -1.0
650 200 1.0
670 200 1.0
672 200 1.0
674 200 1.0
881 200 1.0
882 200 -1.0
59 201 -1.0
61 201 -1.0
63 201 4.45628648004517
65 201 3.34221486003388
501 201 -1.0
593 201 -1.0
594 201 1.0
651 201 -1.0
669 201 -1.0
675 201 1.0
677 201 1.0
883 201 1.0
884 201 -1.0
60 202 -1.0
62 202 -1.0
64 202 4.45628648004517
66 202 3.34221486003388
501 202 1.0
594 202 -1.0
652 202 -1.0
670 202 -1.0
676 202 1.0
678 202 1.0
885 202 1.0
886 202 -1.0
69 203 1.0
70 203 1.5
70 204 -1.0
77 204 -1.0
117 204 1.0
125 204 -1.0
755 204 1.0
70 205 -1.0
75 205 4.45628648004517
77 205 2.54515263975353
502 205 -1.0
595 205 -1.0
596 205 1.0
657 205 -1.0
671 205 -1.0
679 205 1.0
887 205 1.0
888 205 -1.0
73 206 1.0
74 206 1.5
74 207 -1.0
78 207 -1.0
121 207 1.0
126 207 -1.0
756 207 1.0
74 208 -1.0
76 208 4.45628648004517
78 208 2.54515263975353
502 208 1.0
596 208 -1.0
658 208 -1.0
672 208 -1.0
680 208 1.0
889 208 1.0
890 208 -1.0
79 209 -1.0
81 209 -1.0
83 209 -1.0
85 209 -1.0
87 209 4.45628648004517
89 209 30.0
91 209 15.0
503 209 -1.0
597 209 -1.0
598 209 1.0
661 209 -1.0
673 209 -1.0
681 209 1.0
683 209 1.0
685 209 1.0
891 209 1.0
892 209 -1.0
80 210 -1.0
82 210 -1.0
84 210 -1.0
86 210 -1.0
88 210 4.45628648004517
90 210 30.0
92 210 15.0
503 210 1.0
598 210 -1.0
662 210 -1.0
674 210 -1.0
682 210 1.0
684 210 1.0
686 210 1.0
893 210 1.0
894 210 -1.0
95 211 1.0
96 211 1.25
96 212 -1.0
103 212 -1.0
157 212 0.9
159 212 -0.9
165 212 -1.0
769 212 1.0
96 213 -1.0
101 213 3.34221486003388
103 213 1.83548069293539
504 213 -1.0
599 213 -1.0
600 213 1.0
651 213 1.0
653 213 -1.0
675 213 -1.0
687 213 1.0
895 213 1.0
896 213 -1.0
99 214 1.0
100 214 1.25
100 215 -1.0
104 215 -1.0
158 215 0.9
160 215 -0.9
166 215 -1.0
770 215 1.0
100 216 -1.0
102 216 3.34221486003388
104 216 1.83548069293539
504 216 1.0
600 216 -1.0
652 216 1.0
654 216 -1.0
676 216 -1.0
688 216 1.0
897 216 1.0
898 216 -1.0
107 217 1.0
108 217 0.9
108 218 -1.0
115 218 -1.0
171 218 1.0
179 218 -1.0
771 218 1.0
108 219 -1.0
113 219 3.34221486003388
115 219 1.32154609891348
505 219 -1.0
601 219 -1.0
602 219 1.0
651 219 1.0
655 219 -1.0
677 219 -1.0
689 219 1.0
899 219 1.0
900 219 -1.0
111 220 1.0
112 220 0.9
112 221 -1.0
116 221 -1.0
175 221 1.0
180 221 -1.0
772 221 1.0
112 222 -1.0
114 222 3.34221486003388
116 222 1.32154609891348
505 222 1.0
602 222 -1.0
652 222 1.0
656 222 -1.0
678 222 -1.0
690 222 1.0
901 222 1.0
902 222 -1.0
119 223 1.0
120 223 1.0
120 224 -1.0
125 224 2.54515263975353
127 224 1.26558121681553
506 224 -1.0
603 224 -1.0
604 224 1.0
657 224 1.0
659 224 -1.0
679 224 -1.0
691 224 1.0
693 224 1.0
903 224 1.0
904 224 -1.0
123 225 1.0
124 225 1.0
124 226 -1.0
126 226 2.54515263975353
128 226 1.26558121681553
506 226 1.0
604 226 -1.0
658 226 1.0
660 226 -1.0
680 226 -1.0
692 226 1.0
694 226 1.0
905 226 1.0
906 226 -1.0
129 227 -1.0
131 227 -1.0
133 227 15.0
135 227 13.5
507 227 -1.0
605 227 -1.0
606 227 1.0
661 227 1.0
663 227 -1.0
681 227 -1.0
907 227 1.0
908 227 -1.0
130 228 -1.0
132 228 -1.0
134 228 15.0
136 228 13.5
507 228 1.0
606 228 -1.0
662 228 1.0
664 228 -1.0
682 228 -1.0
909 228 1.0
910 228 -1.0
137 229 -1.0
139 229 -1.0
141 229 15.0
143 229 9.0
508 229 -1.0
607 229 -1.0
608 229 1.0
661 229 1.0
665 229 -1.0
683 229 -1.0
695 229 1.0
697 229 1.0
911 229 1.0
912 229 -1.0
138 230 -1.0
140 230 -1.0
142 230 15.0
144 230 9.0
508 230 1.0
608 230 -1.0
662 230 1.0
666 230 -1.0
684 230 -1.0
696 230 1.0
698 230 1.0
913 230 1.0
914 230 -1.0
147 231 1.0
148 231 1.1
148 232 -1.0
153 232 15.0
155 232 3.04984759446376
509 232 -1.0
609 232 -1.0
610 232 1.0
661 232 1.0
667 232 -1.0
685 232 -1.0
699 232 1.0
701 232 1.0
703 232 1.0
915 232 1.0
916 232 -1.0
151 233 1.0
152 233 1.1
152 234 -1.0
154 234 15.0
156 234 3.04984759446376
509 234 1.0
610 234 -1.0
662 234 1.0
668 234 -1.0
686 234 -1.0
700 234 1.0
702 234 1.0
704 234 1.0
917 234 1.0
918 234 -1.0
157 235 -1.0
159 235 -1.0
161 235 -1.0
163 235 -1.0
165 235 1.83548069293539
167 235 20.0
169 235 20.0
510 235 -1.0
611 235 -1.0
612 235 1.0
653 235 1.0
687 235 -1.0
919 235 1.0
920 235 -1.0
158 236 -1.0
160 236 -1.0
162 236 -1.0
164 236 -1.0
166 236 1.83548069293539
168 236 20.0
170 236 20.0
510 236 1.0
612 236 -1.0
654 236 1.0
688 236 -1.0
921 236 1.0
922 236 -1.0
173 237 1.0
174 237 1.0
174 238 -1.0
179 238 1.32154609891348
181 238 0.842233385663186
511 238 -1.0
613 238 -1.0
614 238 1.0
655 238 1.0
689 238 -1.0
923 238 1.0
924 238 -1.0
177 239 1.0
178 239 1.0
178 240 -1.0
180 240 1.32154609891348
182 240 0.842233385663186
511 240 1.0
614 240 -1.0
656 240 1.0
690 240 -1.0
925 240 1.0
926 240 -1.0
185 241 1.0
186 241 0.7
186 242 -1.0
191 242 1.26558121681553
193 242 0.572481933717686
512 242 -1.0
615 242 -1.0
616 242 1.0
659 242 1.0
691 242 -1.0
927 242 1.0
928 242 -1.0
189 243 1.0
190 243 0.7
190 244 -1.0
192 244 1.26558121681553
194 244 0.572481933717686
512 244 1.0
616 244 -1.0
660 244 1.0
692 244 -1.0
929 244 1.0
930 244 -1.0
197 245 1.0
198 245 0.65
198 246 -1.0
206 246 -1.0
211 246 1.26558121681553
213 246 33.5
215 246 2.30162356062425
513 246 -1.0
617 246 -1.0
618 246 1.0
659 246 1.0
663 246 1.0
693 246 -1.0
931 246 1.0
932 246 -1.0
201 247 1.0
202 247 0.65
202 248 -1.0
210 248 -1.0
212 248 1.26558121681553
214 248 33.5
216 248 2.30162356062425
513 248 1.0
618 248 -1.0
660 248 1.0
664 248 1.0
694 248 -1.0
933 248 1.0
934 248 -1.0
205 249 1.0
206 249 0.65
209 250 1.0
210 250 0.65
217 251 -1.0
219 251 -1.0
221 251 9.0
223 251 9.0
514 251 -1.0
619 251 -1.0
620 251 1.0
665 251 1.0
695 251 -1.0
935 251 1.0
936 251 -1.0
218 252 -1.0
220 252 -1.0
222 252 9.0
224 252 9.0
514 252 1.0
620 252 -1.0
666 252 1.0
696 252 -1.0
937 252 1.0
938 252 -1.0
225 253 -1.0
227 253 -1.0
229 253 9.0
231 253 9.0
515 253 -1.0
621 253 -1.0
622 253 1.0
665 253 1.0
697 253 -1.0
939 253 1.0
940 253 -1.0
226 254 -1.0
228 254 -1.0
230 254 9.0
232 254 9.0
515 254 1.0
622 254 -1.0
666 254 1.0
698 254 -1.0
941 254 1.0
942 254 -1.0
235 255 1.0
236 255 0.75
236 256 -1.0
241 256 3.04984759446376
243 256 1.04900943706034
516 256 -1.0
623 256 -1.0
624 256 1.0
667 256 1.0
699 256 -1.0
943 256 1.0
944 256 -1.0
239 257 1.0
240 257 0.75
240 258 -1.0
242 258 3.04984759446376
244 258 1.04900943706034
516 258 1.0
624 258 -1.0
668 258 1.0
700 258 -1.0
945 258 1.0
946 258 -1.0
247 259 1.0
248 259 0.8
248 260 -1.0
253 260 3.04984759446376
255 260 1.11894339953103
517 260 -1.0
625 260 -1.0
626 260 1.0
667 260 1.0
701 260 -1.0
947 260 1.0
948 260 -1.0
251 261 1.0
252 261 0.8
252 262 -1.0
254 262 3.04984759446376
256 262 1.11894339953103
517 262 1.0
626 262 -1.0
668 262 1.0
702 262 -1.0
949 262 1.0
950 262 -1.0
259 263 1.0
260 263 0.85
260 264 -1.0
265 264 3.04984759446376
267 264 1.18887736200171
518 264 -1.0
627 264 -1.0
628 264 1.0
667 264 1.0
703 264 -1.0
705 264 -1.0
711 264 1.0
713 264 1.0
951 264 1.0
952 264 -1.0
263 265 1.0
264 265 0.85
264 266 -1.0
266 266 3.04984759446376
268 266 1.18887736200171
518 266 1.0
628 266 -1.0
668 266 1.0
704 266 -1.0
706 266 -1.0
712 266 1.0
714 266 1.0
953 266 1.0
954 266 -1.0
271 267 1.0
272 267 1.0
272 268 -1.0
277 268 1.18887736200171
279 268 0.78338879230327
519 268 -1.0
629 268 -1.0
630 268 1.0
705 268 1.0
711 268 -1.0
955 268 1.0
956 268 -1.0
275 269 1.0
276 269 1.0
276 270 -1.0
278 270 1.18887736200171
280 270 0.78338879230327
519 270 1.0
630 270 -1.0
706 270 1.0
712 270 -1.0
957 270 1.0
958 270 -1.0
283 271 1.0
284 271 1.2
284 272 -1.0
289 272 1.18887736200171
291 272 0.940066550763924
520 272 -1.0
631 272 -1.0
632 272 1.0
705 272 1.0
713 272 -1.0
959 272 1.0
960 272 -1.0
287 273 1.0
288 273 1.2
288 274 -1.0
290 274 1.18887736200171
292 274 0.940066550763924
520 274 1.0
632 274 -1.0
706 274 1.0
714 274 -1.0
961 274 1.0
962 274 -1.0
293 275 -1.0
295 275 -1.0
297 275 0.940066550763924
299 275 0.705049913072943
521 275 -1.0
633 275 -1.0
634 275 1.0
707 275 -1.0
715 275 1.0
717 275 1.0
963 275 1.0
964 275 -1.0
294 276 -1.0
296 276 -1.0
298 276 0.940066550763924
300 276 0.705049913072943
521 276 1.0
634 276 -1.0
708 276 -1.0
716 276 1.0
718 276 1.0
965 276 1.0
966 276 -1.0
303 277 1.0
304 277 1.5
304 278 -1.0
311 278 -1.0
351 278 1.0
359 278 -1.0
851 278 1.0
304 279 -1.0
309 279 0.940066550763924
311 279 0.994083415506506
522 279 -1.0
635 279 -1.0
636 279 1.0
709 279 -1.0
719 279 1.0
967 279 1.0
968 279 -1.0
307 280 1.0
308 280 1.5
308 281 -1.0
312 281 -1.0
355 281 1.0
360 281 -1.0
852 281 1.0
308 282 -1.0
310 282 0.940066550763924
312 282 0.994083415506506
522 282 1.0
636 282 -1.0
710 282 -1.0
720 282 1.0
969 282 1.0
970 282 -1.0
313 283 -1.0
315 283 -1.0
317 283 -1.0
319 283 -1.0
321 283 0.940066550763924
323 283 30.0
325 283 15.0
523 283 -1.0
637 283 -1.0
638 283 1.0
721 283 1.0
723 283 1.0
971 283 1.0
972 283 -1.0
314 284 -1.0
316 284 -1.0
318 284 -1.0
320 284 -1.0
322 284 0.940066550763924
324 284 30.0
326 284 15.0
523 284 1.0
638 284 -1.0
722 284 1.0
724 284 1.0
973 284 1.0
974 284 -1.0
329 285 1.0
330 285 1.25
330 286 -1.0
335 286 0.705049913072943
337 286 0.666992981045719
524 286 -1.0
639 286 -1.0
640 286 1.0
707 286 1.0
715 286 -1.0
975 286 1.0
976 286 -1.0
333 287 1.0
334 287 1.25
334 288 -1.0
336 288 0.705049913072943
338 288 0.666992981045719
524 288 1.0
640 288 -1.0
708 288 1.0
716 288 -1.0
977 288 1.0
978 288 -1.0
341 289 1.0
342 289 0.9
342 290 -1.0
347 290 0.705049913072943
349 290 0.480234946352917
525 290 -1.0
641 290 -1.0
642 290 1.0
707 290 1.0
717 290 -1.0
979 290 1.0
980 290 -1.0
345 291 1.0
346 291 0.9
346 292 -1.0
348 292 0.705049913072943
350 292 0.480234946352917
525 292 1.0
642 292 -1.0
708 292 1.0
718 292 -1.0
981 292 1.0
982 292 -1.0
353 293 1.0
354 293 1.0
354 294 -1.0
359 294 0.994083415506506
361 294 0.690184503917672
526 294 -1.0
643 294 -1.0
644 294 1.0
709 294 1.0
719 294 -1.0
983 294 1.0
984 294 -1.0
357 295 1.0
358 295 1.0
358 296 -1.0
360 296 0.994083415506506
362 296 0.690184503917672
526 296 1.0
644 296 -1.0
710 296 1.0
720 296 -1.0
985 296 1.0
986 296 -1.0
363 297 -1.0
365 297 -1.0
367 297 15.0
369 297 13.5
527 297 -1.0
645 297 -1.0
646 297 1.0
721 297 -1.0
987 297 1.0
988 297 -1.0
364 298 -1.0
366 298 -1.0
368 298 15.0
370 298 13.5
527 298 1.0
646 298 -1.0
722 298 -1.0
989 298 1.0
990 298 -1.0
371 299 -1.0
373 299 -1.0
375 299 15.0
377 299 9.0
528 299 -1.0
647 299 -1.0
648 299 1.0
723 299 -1.0
991 299 1.0
992 299 -1.0
372 300 -1.0
374 300 -1.0
376 300 15.0
378 300 9.0
528 300 1.0
648 300 -1.0
724 300 -1.0
993 300 1.0
994 300 -1.0
379 301 -1.0
439 301 1.0
380 302 -1.0
440 302 1.0
381 303 -1.0
441 303 1.0
382 304 -1.0
442 304 1.0
383 305 -1.0
443 305 1.0
384 306 -1.0
444 306 1.0
385 307 -1.0
445 307 1.0
386 308 -1.0
446 308 1.0
387 309 -1.0
447 309 1.0
388 310 -1.0
448 310 1.0
389 311 -1.0
449 311 1.0
390 312 -1.0
450 312 1.0
391 313 -1.0
451 313 1.0
392 314 -1.0
452 314 1.0
393 315 -1.0
453 315 1.0
394 316 -1.0
454 316 1.0
395 317 -1.0
455 317 1.0
396 318 -1.0
456 318 1.0
397 319 -1.0
457 319 1.0
398 320 -1.0
458 320 1.0
399 321 -1.0
459 321 1.0
400 322 -1.0
460 322 1.0
401 323 -1.0
461 323 1.0
402 324 -1.0
462 324 1.0
403 325 -1.0
463 325 1.0
404 326 -1.0
464 326 1.0
405 327 -1.0
465 327 1.0
406 328 -1.0
466 328 1.0
407 329 -1.0
467 329 1.0
408 330 -1.0
468 330 1.0
409 331 -1.0
469 331 1.0
410 332 -1.0
470 332 1.0
411 333 -1.0
471 333 1.0
412 334 -1.0
472 334 1.0
413 335 -1.0
473 335 1.0
414 336 -1.0
474 336 1.0
415 337 -1.0
475 337 1.0
416 338 -1.0
476 338 1.0
417 339 -1.0
477 339 1.0
418 340 -1.0
478 340 1.0
419 341 -1.0
479 341 1.0
420 342 -1.0
480 342 1.0
421 343 -1.0
481 343 1.0
422 344 -1.0
482 344 1.0
423 345 -1.0
483 345 1.0
424 346 -1.0
484 346 1.0
425 347 -1.0
485 347 1.0
426 348 -1.0
486 348 1.0
427 349 -1.0
487 349 1.0
428 350 -1.0
488 350 1.0
429 351 -1.0
489 351 1.0
430 352 -1.0
490 352 1.0
431 353 -1.0
491 353 1.0
432 354 -1.0
492 354 1.0
433 355 -1.0
493 355 1.0
434 356 -1.0
494 356 1.0
435 357 -1.0
495 357 1.0
436 358 -1.0
496 358 1.0
437 359 -1.0
497 359 1.0
438 360 -1.0
498 360 1.0

BCOORD
368
35 1.0
36 1.0
38 1.0
39 1.0
40 1.0
42 1.0
47 1.0
48 1.0
50 1.0
51 1.0
52 1.0
54 1.0
59 1.0
60 1.0
61 1.0
62 1.0
67 1.0
68 1.0
70 1.0
71 1.0
72 1.0
74 1.0
79 1.0
80 1.0
81 1.0
82 1.0
83 1.0
84 1.0
85 1.0
86 1.0
93 1.0
94 1.0
96 1.0
97 1.0
98 1.0
100 1.0
105 1.0
106 1.0
108 1.0
109 1.0
110 1.0
112 1.0
117 1.0
118 1.0
120 1.0
121 1.0
122 1.0
124 1.0
129 1.0
130 1.0
131 1.0
132 1.0
137 1.0
138 1.0
139 1.0
140 1.0
145 1.0
146 1.0
148 1.0
149 1.0
150 1.0
152 1.0
157 1.0
158 1.0
159 1.0
160 1.0
161 1.0
162 1.0
163 1.0
164 1.0
171 1.0
172 1.0
174 1.0
175 1.0
176 1.0
178 1.0
183 1.0
184 1.0
186 1.0
187 1.0
188 1.0
190 1.0
195 1.0
196 1.0
198 1.0
199 1.0
200 1.0
202 1.0
203 1.0
204 1.0
206 1.0
207 1.0
208 1.0
210 1.0
217 1.0
218 1.0
219 1.0
220 1.0
225 1.0
226 1.0
227 1.0
228 1.0
233 1.0
234 1.0
236 1.0
237 1.0
238 1.0
240 1.0
245 1.0
246 1.0
248 1.0
249 1.0
250 1.0
252 1.0
257 1.0
258 1.0
260 1.0
261 1.0
262 1.0
264 1.0
269 1.0
270 1.0
272 1.0
273 1.0
274 1.0
276 1.0
281 1.0
282 1.0
284 1.0
285 1.0
286 1.0
288 1.0
293 1.0
294 1.0
295 1.0
296 1.0
301 1.0
302 1.0
304 1.0
305 1.0
306 1.0
308 1.0
313 1.0
314 1.0
315 1.0
316 1.0
317 1.0
318 1.0
319 1.0
320 1.0
327 1.0
328 1.0
330 1.0
331 1.0
332 1.0
334 1.0
339 1.0
340 1.0
342 1.0
343 1.0
344 1.0
346 1.0
351 1.0
352 1.0
354 1.0
355 1.0
356 1.0
358 1.0
363 1.0
364 1.0
365 1.0
366 1.0
371 1.0
372 1.0
373 1.0
374 1.0
529 1.0
530 1.0
531 1.0
532 1.0
533 1.0
534 1.0
535 1.0
536 1.0
537 1.0
538 1.0
539 1.0
540 1.0
541 1.0
542 1.0
543 1.0
544 1.0
545 1.0
546 1.0
547 1.0
548 1.0
549 1.0
550 1.0
551 1.0
552 1.0
553 1.0
554 1.0
555 1.0
556 1.0
557 1.0
558 1.0
559 1.0
560 1.0
561 1.0
562 1.0
563 1.0
564 1.0
565 1.0
566 1.0
567 1.0
568 1.0
569 1.0
570 1.0
571 1.0
572 1.0
573 1.0
574 1.0
575 1.0
576 1.0
577 1.0
578 1.0
579 1.0
580 1.0
581 1.0
582 1.0
583 1.0
584 1.0
585 1.0
586 1.0
587 1.0
588 1.0
649 -1.0
650 -1.0
726 40.0
728 40.0
750 30.0
752 30.0
786 20.0
788 20.0
790 20.0
792 20.0
846 30.0
848 30.0
876 1.0
878 1.0
880 1.0
882 1.0
884 1.0
886 1.0
888 1.0
890 1.0
892 1.0
894 1.0
896 1.0
898 1.0
900 1.0
902 1.0
904 1.0
906 1.0
908 1.0
910 1.0
912 1.0
914 1.0
916 1.0
918 1.0
920 1.0
922 1.0
924 1.0
926 1.0
928 1.0
930 1.0
932 1.0
934 1.0
936 1.0
938 1.0
940 1.0
942 1.0
944 1.0
946 1.0
948 1.0
950 1.0
952 1.0
954 1.0
956 1.0
958 1.0
960 1.0
962 1.0
964 1.0
966 1.0
968 1.0
970 1.0
972 1.0
974 1.0
976 1.0
978 1.0
980 1.0
982 1.0
984 1.0
986 1.0
988 1.0
990 1.0
992 1.0
994 1.0
996 1.0
998 1.0
1000 1.0
1002 1.0
1004 1.0
1006 1.0
1008 1.0
1010 1.0
1012 1.0
1014 1.0
1016 1.0
1018 1.0
1020 1.0
1022 1.0
1024 1.0
1026 1.0
1028 1.0
1030 1.0
1032 1.0
1034 1.0
1036 1.0
1038 1.0
1040 1.0
1042 1.0
1044 1.0
1046 1.0
1048 1.0
1050 1.0
1052 1.0
1054 1.0
1056 1.0
1058 1.0
1060 1.0
1062 1.0
1064 1.0
1066 1.0
1068 1.0
1070 1.0
1072 1.0
1074 1.0
1076 1.0
1078 1.0
1080 1.0
1082 1.0
1084 1.0
1086 1.0
1088 1.0
1090 1.0
1092 1.0
1094 1.0
1096 1.0
1098 1.0
1100 1.0
1102 1.0
1104 1.0
1106 1.0
1108 1.0
1110 1.0
1112 1.0
1114 1.0
